(set-logic HORN)
(declare-fun inv ((_ BitVec 8) ) Bool)
(assert (forall ((x (_ BitVec 8))) 
       (=> ( and ( bvsle x ( bvadd (_ bv1 8) ( bvnot (_ bv2 8) ) ) ) ( bvsge x ( bvadd (_ bv1 8) ( bvnot (_ bv3 8) ) ) ) ) (inv x))))
(assert (forall ((x (_ BitVec 8)) (x! (_ BitVec 8))) 
       (=> (and (inv x) ( or ( and ( = x! ( bvadd x (_ bv2 8) ) ) ( bvslt x (_ bv1 8) ) ) ( and ( = x! ( bvadd x (_ bv1 8) ) ) ( bvsge x (_ bv1 8) ) ) )) (inv x!))))
(assert (forall ((x (_ BitVec 8))) 
       (=> (inv x) ( and ( bvsge x ( bvadd (_ bv1 8) ( bvnot (_ bv5 8) ) ) ) ))))
(check-sat)
